Version identifier: 12.10.0.0 | 2019-11-26 | 843d4de
CPXPARAM_WorkMem                                 28672
Tried aggregator 2 times.
Aggregator did 75 substitutions.
Reduced MIP has 243 rows, 270 columns, and 1032 nonzeros.
Reduced MIP has 270 binaries, 0 generals, 0 SOSs, and 0 indicators.
Presolve time = 0,00 sec. (1,04 ticks)
Found incumbent of value 1419,000000 after 0,00 sec. (1,71 ticks)
Probing time = 0,00 sec. (0,45 ticks)
Tried aggregator 1 time.
Detecting symmetries...
MIP Presolve eliminated 78 rows and 0 columns.
MIP Presolve added 156 rows and 0 columns.
Reduced MIP has 321 rows, 270 columns, and 1110 nonzeros.
Reduced MIP has 270 binaries, 0 generals, 0 SOSs, and 0 indicators.
Presolve time = 0,00 sec. (1,40 ticks)
Probing time = 0,00 sec. (0,43 ticks)
Clique table members: 732.
MIP emphasis: balance optimality and feasibility.
MIP search method: dynamic search.
Parallel mode: deterministic, using up to 16 threads.
Root relaxation solution time = 0,00 sec. (1,84 ticks)

        Nodes                                         Cuts/
   Node  Left     Objective  IInf  Best Integer    Best Bound    ItCnt     Gap

*     0+    0                         1419,0000        0,0000           100,00%
*     0+    0                          864,0000        0,0000           100,00%
      0     0      473,0000   270      864,0000      473,0000      156   45,25%
      0     0      480,7050   270      864,0000       Cuts: 9      198   44,36%
      0     0      487,2760   270      864,0000      Fract: 4      230   43,60%
      0     0      488,8931   270      864,0000      Fract: 3      253   43,42%
      0     0      489,2161   270      864,0000      Fract: 4      262   43,38%
      0     0      489,3360   270      864,0000       Cuts: 2      273   43,36%
      0     0      490,6309   270      864,0000      Fract: 2      292   43,21%
      0     0      490,7036   270      864,0000      Fract: 1      294   43,21%
      0     0      490,7484   270      864,0000      Fract: 1      301   43,20%
*     0+    0                          821,0000      490,7484            40,23%
      0     2      490,7484   265      821,0000      525,2222      301   36,03%
Elapsed time = 0,09 sec. (49,01 ticks, tree = 0,02 MB, solutions = 3)

Cover cuts applied:  390
Lift and project cuts applied:  2
Gomory fractional cuts applied:  10

Root node processing (before b&c):
  Real time             =    0,09 sec. (48,75 ticks)
Parallel b&c, 16 threads:
  Real time             =    0,38 sec. (236,42 ticks)
  Sync time (average)   =    0,14 sec.
  Wait time (average)   =    0,00 sec.
                          ------------
Total (root+branch&cut) =    0,48 sec. (285,16 ticks)
